! SELECT RESTRICTED HARTREE-FOCK AS DEFAULT
 $contrl scftyp=rhf maxit=200 $end
 $contrl runtyp=OPTIMIZE maxit=200 nprint=2 $end                    

 $system timlim=100000 mwords=120 $end
 $SCF DIRSCF=.TRUE. $end             

! BASIS SETS
! KTZVP
 $BASIS GBASIS=PM6-D3H+ $END
! One of the following
 $guess guess=HUCKEL $end

 $statpt projct=.FALSE. $end
 $STATPT HESS=CALC HSSEND=.T. $END
 $STATPT NSTEP=1000 IFREEZ(1)=1,2,3 $END
 $STATPT DXMAX=0.1 TRUPD=.f. $end

! available memory
 $SYSTEM MWORDS=200 $END
