 SELECT RESTRICTED HARTREE-FOCK AS DEFAULT
 $contrl scftyp=rhf dfttyp=B3LYP maxit=200 $end
 $contrl runtyp=OPTIMIZE maxit=200 $end

 $system timlim=10000 mwords=20 $end
 $SCF DIRSCF=.TRUE. $end

! BASIS SETS
! KTZVP
 $BASIS GBASIS=N31 NGAUSS=6 $END
! One of the following
 $guess guess=HUCKEL $end

 $statpt projct=.FALSE. $end
 $STATPT IFREEZ(1)=1,2,3 $END

! Run COSMO on perfect conductor
 $COSGMS PRFCND=.TRUE. $end

! Specifying RSOLV
 $COSGMS COSRAD = 1.4 $end

! available memory
 $SYSTEM MWORDS=40 $END